Ordonnancement/plne/source/petit_instance/2job/2job_15.dat
data;
param nombreJob := 2;
param nombreRessource := 3;
param duree := 1 8 2 3;
param capaciteRessource := 1 5 2 9 3 10;
param besoinRessource : 1 2 3 :=
                    1   4 5 10
                    2   3 8 10;
end;

